54462
1 1 1 1 1 1 1 1 1 1 1 1 1 1 1 1 1 1 1 1 1 1 1 1 1 1 1 1 1 1 
18 19 21 27 2 12 15 27 22 28 4 28 10 1 28 18 1 10 22 0 18 21 5 24 10 18 27 19 29 2 19 19 4 21 27 6 20 8 24 15 18 9 6 4 8 19 3 21 19 14 24 24 24 21 8 12 11 9 18 7 29 0 7 8 13 25 5 14 28 25 18 12 19 9 23 23 20 23 8 24 10 0 9 25 29 10 6 2 27 7 28 19 25 25 2 3 11 6 0 28 28 15 12 18 4 0 4 24 22 3 19 4 27 12 12 8 28 7 17 8 26 11 17 19 26 16 2 11 26 17 28 24 25 10 23 9 3 3 28 10 12 22 11 25 25 5 24 15 27 25 24 17 23 0 8 11 2 15 3 3 13 27 10 24 23 27 5 4 3 21 1 20 19 14 26 2 0 10 29 10 5 21 2 19 12 8 28 23 0 21 2 21 6 4 7 12 7 15 10 19 